c description: There is a graph of 8 vertices with a 3-clique and a 8-coloring
c generator: CNFgen (0.9.0)
c copyright: (C) 2012-2020 Massimo Lauria <massimo.lauria@uniroma1.it>
c url: https://massimolauria.net/cnfgen
c
p cnf 116 735
-29 -30 0
-29 -31 0
-29 -32 0
-29 -33 0
-29 -34 0
-29 -35 0
-29 -36 0
-30 -31 0
-30 -32 0
-30 -33 0
-30 -34 0
-30 -35 0
-30 -36 0
-31 -32 0
-31 -33 0
-31 -34 0
-31 -35 0
-31 -36 0
-32 -33 0
-32 -34 0
-32 -35 0
-32 -36 0
-33 -34 0
-33 -35 0
-33 -36 0
-34 -35 0
-34 -36 0
-35 -36 0
29 30 31 32 33 34 35 36 0
-37 -38 0
-37 -39 0
-37 -40 0
-37 -41 0
-37 -42 0
-37 -43 0
-37 -44 0
-38 -39 0
-38 -40 0
-38 -41 0
-38 -42 0
-38 -43 0
-38 -44 0
-39 -40 0
-39 -41 0
-39 -42 0
-39 -43 0
-39 -44 0
-40 -41 0
-40 -42 0
-40 -43 0
-40 -44 0
-41 -42 0
-41 -43 0
-41 -44 0
-42 -43 0
-42 -44 0
-43 -44 0
37 38 39 40 41 42 43 44 0
-45 -46 0
-45 -47 0
-45 -48 0
-45 -49 0
-45 -50 0
-45 -51 0
-45 -52 0
-46 -47 0
-46 -48 0
-46 -49 0
-46 -50 0
-46 -51 0
-46 -52 0
-47 -48 0
-47 -49 0
-47 -50 0
-47 -51 0
-47 -52 0
-48 -49 0
-48 -50 0
-48 -51 0
-48 -52 0
-49 -50 0
-49 -51 0
-49 -52 0
-50 -51 0
-50 -52 0
-51 -52 0
45 46 47 48 49 50 51 52 0
-29 -37 0
-29 -45 0
-37 -45 0
-30 -38 0
-30 -46 0
-38 -46 0
-31 -39 0
-31 -47 0
-39 -47 0
-32 -40 0
-32 -48 0
-40 -48 0
-33 -41 0
-33 -49 0
-41 -49 0
-34 -42 0
-34 -50 0
-42 -50 0
-35 -43 0
-35 -51 0
-43 -51 0
-36 -44 0
-36 -52 0
-44 -52 0
1 -29 -38 0
1 -29 -46 0
1 -37 -30 0
1 -37 -46 0
1 -45 -30 0
1 -45 -38 0
2 -29 -39 0
2 -29 -47 0
2 -37 -31 0
2 -37 -47 0
2 -45 -31 0
2 -45 -39 0
3 -29 -40 0
3 -29 -48 0
3 -37 -32 0
3 -37 -48 0
3 -45 -32 0
3 -45 -40 0
4 -29 -41 0
4 -29 -49 0
4 -37 -33 0
4 -37 -49 0
4 -45 -33 0
4 -45 -41 0
5 -29 -42 0
5 -29 -50 0
5 -37 -34 0
5 -37 -50 0
5 -45 -34 0
5 -45 -42 0
6 -29 -43 0
6 -29 -51 0
6 -37 -35 0
6 -37 -51 0
6 -45 -35 0
6 -45 -43 0
7 -29 -44 0
7 -29 -52 0
7 -37 -36 0
7 -37 -52 0
7 -45 -36 0
7 -45 -44 0
8 -30 -39 0
8 -30 -47 0
8 -38 -31 0
8 -38 -47 0
8 -46 -31 0
8 -46 -39 0
9 -30 -40 0
9 -30 -48 0
9 -38 -32 0
9 -38 -48 0
9 -46 -32 0
9 -46 -40 0
10 -30 -41 0
10 -30 -49 0
10 -38 -33 0
10 -38 -49 0
10 -46 -33 0
10 -46 -41 0
11 -30 -42 0
11 -30 -50 0
11 -38 -34 0
11 -38 -50 0
11 -46 -34 0
11 -46 -42 0
12 -30 -43 0
12 -30 -51 0
12 -38 -35 0
12 -38 -51 0
12 -46 -35 0
12 -46 -43 0
13 -30 -44 0
13 -30 -52 0
13 -38 -36 0
13 -38 -52 0
13 -46 -36 0
13 -46 -44 0
14 -31 -40 0
14 -31 -48 0
14 -39 -32 0
14 -39 -48 0
14 -47 -32 0
14 -47 -40 0
15 -31 -41 0
15 -31 -49 0
15 -39 -33 0
15 -39 -49 0
15 -47 -33 0
15 -47 -41 0
16 -31 -42 0
16 -31 -50 0
16 -39 -34 0
16 -39 -50 0
16 -47 -34 0
16 -47 -42 0
17 -31 -43 0
17 -31 -51 0
17 -39 -35 0
17 -39 -51 0
17 -47 -35 0
17 -47 -43 0
18 -31 -44 0
18 -31 -52 0
18 -39 -36 0
18 -39 -52 0
18 -47 -36 0
18 -47 -44 0
19 -32 -41 0
19 -32 -49 0
19 -40 -33 0
19 -40 -49 0
19 -48 -33 0
19 -48 -41 0
20 -32 -42 0
20 -32 -50 0
20 -40 -34 0
20 -40 -50 0
20 -48 -34 0
20 -48 -42 0
21 -32 -43 0
21 -32 -51 0
21 -40 -35 0
21 -40 -51 0
21 -48 -35 0
21 -48 -43 0
22 -32 -44 0
22 -32 -52 0
22 -40 -36 0
22 -40 -52 0
22 -48 -36 0
22 -48 -44 0
23 -33 -42 0
23 -33 -50 0
23 -41 -34 0
23 -41 -50 0
23 -49 -34 0
23 -49 -42 0
24 -33 -43 0
24 -33 -51 0
24 -41 -35 0
24 -41 -51 0
24 -49 -35 0
24 -49 -43 0
25 -33 -44 0
25 -33 -52 0
25 -41 -36 0
25 -41 -52 0
25 -49 -36 0
25 -49 -44 0
26 -34 -43 0
26 -34 -51 0
26 -42 -35 0
26 -42 -51 0
26 -50 -35 0
26 -50 -43 0
27 -34 -44 0
27 -34 -52 0
27 -42 -36 0
27 -42 -52 0
27 -50 -36 0
27 -50 -44 0
28 -35 -44 0
28 -35 -52 0
28 -43 -36 0
28 -43 -52 0
28 -51 -36 0
28 -51 -44 0
-53 -54 0
-53 -55 0
-53 -56 0
-53 -57 0
-53 -58 0
-53 -59 0
-53 -60 0
-54 -55 0
-54 -56 0
-54 -57 0
-54 -58 0
-54 -59 0
-54 -60 0
-55 -56 0
-55 -57 0
-55 -58 0
-55 -59 0
-55 -60 0
-56 -57 0
-56 -58 0
-56 -59 0
-56 -60 0
-57 -58 0
-57 -59 0
-57 -60 0
-58 -59 0
-58 -60 0
-59 -60 0
53 54 55 56 57 58 59 60 0
-61 -62 0
-61 -63 0
-61 -64 0
-61 -65 0
-61 -66 0
-61 -67 0
-61 -68 0
-62 -63 0
-62 -64 0
-62 -65 0
-62 -66 0
-62 -67 0
-62 -68 0
-63 -64 0
-63 -65 0
-63 -66 0
-63 -67 0
-63 -68 0
-64 -65 0
-64 -66 0
-64 -67 0
-64 -68 0
-65 -66 0
-65 -67 0
-65 -68 0
-66 -67 0
-66 -68 0
-67 -68 0
61 62 63 64 65 66 67 68 0
-69 -70 0
-69 -71 0
-69 -72 0
-69 -73 0
-69 -74 0
-69 -75 0
-69 -76 0
-70 -71 0
-70 -72 0
-70 -73 0
-70 -74 0
-70 -75 0
-70 -76 0
-71 -72 0
-71 -73 0
-71 -74 0
-71 -75 0
-71 -76 0
-72 -73 0
-72 -74 0
-72 -75 0
-72 -76 0
-73 -74 0
-73 -75 0
-73 -76 0
-74 -75 0
-74 -76 0
-75 -76 0
69 70 71 72 73 74 75 76 0
-77 -78 0
-77 -79 0
-77 -80 0
-77 -81 0
-77 -82 0
-77 -83 0
-77 -84 0
-78 -79 0
-78 -80 0
-78 -81 0
-78 -82 0
-78 -83 0
-78 -84 0
-79 -80 0
-79 -81 0
-79 -82 0
-79 -83 0
-79 -84 0
-80 -81 0
-80 -82 0
-80 -83 0
-80 -84 0
-81 -82 0
-81 -83 0
-81 -84 0
-82 -83 0
-82 -84 0
-83 -84 0
77 78 79 80 81 82 83 84 0
-85 -86 0
-85 -87 0
-85 -88 0
-85 -89 0
-85 -90 0
-85 -91 0
-85 -92 0
-86 -87 0
-86 -88 0
-86 -89 0
-86 -90 0
-86 -91 0
-86 -92 0
-87 -88 0
-87 -89 0
-87 -90 0
-87 -91 0
-87 -92 0
-88 -89 0
-88 -90 0
-88 -91 0
-88 -92 0
-89 -90 0
-89 -91 0
-89 -92 0
-90 -91 0
-90 -92 0
-91 -92 0
85 86 87 88 89 90 91 92 0
-93 -94 0
-93 -95 0
-93 -96 0
-93 -97 0
-93 -98 0
-93 -99 0
-93 -100 0
-94 -95 0
-94 -96 0
-94 -97 0
-94 -98 0
-94 -99 0
-94 -100 0
-95 -96 0
-95 -97 0
-95 -98 0
-95 -99 0
-95 -100 0
-96 -97 0
-96 -98 0
-96 -99 0
-96 -100 0
-97 -98 0
-97 -99 0
-97 -100 0
-98 -99 0
-98 -100 0
-99 -100 0
93 94 95 96 97 98 99 100 0
-101 -102 0
-101 -103 0
-101 -104 0
-101 -105 0
-101 -106 0
-101 -107 0
-101 -108 0
-102 -103 0
-102 -104 0
-102 -105 0
-102 -106 0
-102 -107 0
-102 -108 0
-103 -104 0
-103 -105 0
-103 -106 0
-103 -107 0
-103 -108 0
-104 -105 0
-104 -106 0
-104 -107 0
-104 -108 0
-105 -106 0
-105 -107 0
-105 -108 0
-106 -107 0
-106 -108 0
-107 -108 0
101 102 103 104 105 106 107 108 0
-109 -110 0
-109 -111 0
-109 -112 0
-109 -113 0
-109 -114 0
-109 -115 0
-109 -116 0
-110 -111 0
-110 -112 0
-110 -113 0
-110 -114 0
-110 -115 0
-110 -116 0
-111 -112 0
-111 -113 0
-111 -114 0
-111 -115 0
-111 -116 0
-112 -113 0
-112 -114 0
-112 -115 0
-112 -116 0
-113 -114 0
-113 -115 0
-113 -116 0
-114 -115 0
-114 -116 0
-115 -116 0
109 110 111 112 113 114 115 116 0
-1 -53 -61 0
-1 -54 -62 0
-1 -55 -63 0
-1 -56 -64 0
-1 -57 -65 0
-1 -58 -66 0
-1 -59 -67 0
-1 -60 -68 0
-2 -53 -69 0
-2 -54 -70 0
-2 -55 -71 0
-2 -56 -72 0
-2 -57 -73 0
-2 -58 -74 0
-2 -59 -75 0
-2 -60 -76 0
-3 -53 -77 0
-3 -54 -78 0
-3 -55 -79 0
-3 -56 -80 0
-3 -57 -81 0
-3 -58 -82 0
-3 -59 -83 0
-3 -60 -84 0
-4 -53 -85 0
-4 -54 -86 0
-4 -55 -87 0
-4 -56 -88 0
-4 -57 -89 0
-4 -58 -90 0
-4 -59 -91 0
-4 -60 -92 0
-5 -53 -93 0
-5 -54 -94 0
-5 -55 -95 0
-5 -56 -96 0
-5 -57 -97 0
-5 -58 -98 0
-5 -59 -99 0
-5 -60 -100 0
-6 -53 -101 0
-6 -54 -102 0
-6 -55 -103 0
-6 -56 -104 0
-6 -57 -105 0
-6 -58 -106 0
-6 -59 -107 0
-6 -60 -108 0
-7 -53 -109 0
-7 -54 -110 0
-7 -55 -111 0
-7 -56 -112 0
-7 -57 -113 0
-7 -58 -114 0
-7 -59 -115 0
-7 -60 -116 0
-8 -61 -69 0
-8 -62 -70 0
-8 -63 -71 0
-8 -64 -72 0
-8 -65 -73 0
-8 -66 -74 0
-8 -67 -75 0
-8 -68 -76 0
-9 -61 -77 0
-9 -62 -78 0
-9 -63 -79 0
-9 -64 -80 0
-9 -65 -81 0
-9 -66 -82 0
-9 -67 -83 0
-9 -68 -84 0
-10 -61 -85 0
-10 -62 -86 0
-10 -63 -87 0
-10 -64 -88 0
-10 -65 -89 0
-10 -66 -90 0
-10 -67 -91 0
-10 -68 -92 0
-11 -61 -93 0
-11 -62 -94 0
-11 -63 -95 0
-11 -64 -96 0
-11 -65 -97 0
-11 -66 -98 0
-11 -67 -99 0
-11 -68 -100 0
-12 -61 -101 0
-12 -62 -102 0
-12 -63 -103 0
-12 -64 -104 0
-12 -65 -105 0
-12 -66 -106 0
-12 -67 -107 0
-12 -68 -108 0
-13 -61 -109 0
-13 -62 -110 0
-13 -63 -111 0
-13 -64 -112 0
-13 -65 -113 0
-13 -66 -114 0
-13 -67 -115 0
-13 -68 -116 0
-14 -69 -77 0
-14 -70 -78 0
-14 -71 -79 0
-14 -72 -80 0
-14 -73 -81 0
-14 -74 -82 0
-14 -75 -83 0
-14 -76 -84 0
-15 -69 -85 0
-15 -70 -86 0
-15 -71 -87 0
-15 -72 -88 0
-15 -73 -89 0
-15 -74 -90 0
-15 -75 -91 0
-15 -76 -92 0
-16 -69 -93 0
-16 -70 -94 0
-16 -71 -95 0
-16 -72 -96 0
-16 -73 -97 0
-16 -74 -98 0
-16 -75 -99 0
-16 -76 -100 0
-17 -69 -101 0
-17 -70 -102 0
-17 -71 -103 0
-17 -72 -104 0
-17 -73 -105 0
-17 -74 -106 0
-17 -75 -107 0
-17 -76 -108 0
-18 -69 -109 0
-18 -70 -110 0
-18 -71 -111 0
-18 -72 -112 0
-18 -73 -113 0
-18 -74 -114 0
-18 -75 -115 0
-18 -76 -116 0
-19 -77 -85 0
-19 -78 -86 0
-19 -79 -87 0
-19 -80 -88 0
-19 -81 -89 0
-19 -82 -90 0
-19 -83 -91 0
-19 -84 -92 0
-20 -77 -93 0
-20 -78 -94 0
-20 -79 -95 0
-20 -80 -96 0
-20 -81 -97 0
-20 -82 -98 0
-20 -83 -99 0
-20 -84 -100 0
-21 -77 -101 0
-21 -78 -102 0
-21 -79 -103 0
-21 -80 -104 0
-21 -81 -105 0
-21 -82 -106 0
-21 -83 -107 0
-21 -84 -108 0
-22 -77 -109 0
-22 -78 -110 0
-22 -79 -111 0
-22 -80 -112 0
-22 -81 -113 0
-22 -82 -114 0
-22 -83 -115 0
-22 -84 -116 0
-23 -85 -93 0
-23 -86 -94 0
-23 -87 -95 0
-23 -88 -96 0
-23 -89 -97 0
-23 -90 -98 0
-23 -91 -99 0
-23 -92 -100 0
-24 -85 -101 0
-24 -86 -102 0
-24 -87 -103 0
-24 -88 -104 0
-24 -89 -105 0
-24 -90 -106 0
-24 -91 -107 0
-24 -92 -108 0
-25 -85 -109 0
-25 -86 -110 0
-25 -87 -111 0
-25 -88 -112 0
-25 -89 -113 0
-25 -90 -114 0
-25 -91 -115 0
-25 -92 -116 0
-26 -93 -101 0
-26 -94 -102 0
-26 -95 -103 0
-26 -96 -104 0
-26 -97 -105 0
-26 -98 -106 0
-26 -99 -107 0
-26 -100 -108 0
-27 -93 -109 0
-27 -94 -110 0
-27 -95 -111 0
-27 -96 -112 0
-27 -97 -113 0
-27 -98 -114 0
-27 -99 -115 0
-27 -100 -116 0
-28 -101 -109 0
-28 -102 -110 0
-28 -103 -111 0
-28 -104 -112 0
-28 -105 -113 0
-28 -106 -114 0
-28 -107 -115 0
-28 -108 -116 0